problems/03-merlin-simple6/03-merlin-simple6.td
c read Graph
c width = 2
c time = 7 ms
c width = 2
c time = 4886 ms
s td 4 3 6
b 1 1 2 5
b 2 2 4 5
b 3 2 3 4
b 4 1 5 6
1 4
1 2
2 3
