problems/03-merlin-simple6/03-merlin-simple6.uai
MARKOV
6
2 2 2 2 2 2
7
2 0 1
2 0 5
2 1 2
2 1 4
2 2 3
2 3 4
2 4 5

4
 0.9501 3.6068
 0.2311 1.4860

4
 0.8913 2.4565
 1.7621 0.0185

4
 0.8214 6.6154
 1.4447 0.7919

4
 4.9218 0.1763
 0.7382 3.4057

4
 0.9355 6.4103
 2.9169 0.8936

4
 1.0579 4.8132
 2.3529 1.0099

4
 1.1389 0.1987
 0.2028 4.6038


